p cnf 7230 16
1242 -1368 0
1242 -1371 0
-1238 -1363 1364 0
1238 -1365 0
-1242 -1366 1367 0
1242 -1374 0
-1242 -1369 1370 0
-1242 -1372 1373 0
-1367 1368 0
-1364 1365 0
1372 -1374 0
-1370 1371 0
1369 -1371 0
1366 -1368 0
1363 -1365 0
-1373 1374 0
